************************************************************************
file with basedata            : j9044_.bas
initial value random generator: 345219595
************************************************************************
projects                      :  1
jobs (incl. supersource/sink ):  92
horizon                       :  504
RESOURCES
  - renewable                 :  4   R
  - nonrenewable              :  0   N
  - doubly constrained        :  0   D
************************************************************************
PROJECT INFORMATION:
pronr.  #jobs rel.date duedate tardcost  MPM-Time
    1     90      0       99       27       99
************************************************************************
PRECEDENCE RELATIONS:
jobnr.    #modes  #successors   successors
   1        1          3           2   3   4
   2        1          3           5   7   9
   3        1          2          25  26
   4        1          3           6  11  45
   5        1          3           8  37  43
   6        1          3          19  22  35
   7        1          3          11  17  20
   8        1          3          10  68  74
   9        1          3          18  23  24
  10        1          3          12  21  46
  11        1          3          14  32  47
  12        1          3          13  15  31
  13        1          3          27  33  87
  14        1          3          67  83  87
  15        1          3          16  28  56
  16        1          3          29  41  47
  17        1          3          25  29  45
  18        1          3          43  50  58
  19        1          3          28  51  65
  20        1          3          54  60  86
  21        1          3          24  53  70
  22        1          3          34  69  71
  23        1          3          38  40  58
  24        1          3          30  52  62
  25        1          1          81
  26        1          3          42  59  85
  27        1          3          32  54  60
  28        1          1          55
  29        1          3          34  39  70
  30        1          3          34  48  56
  31        1          3          47  48  73
  32        1          3          36  41  62
  33        1          3          49  60  89
  34        1          3          38  40  80
  35        1          3          51  53  58
  36        1          3          39  65  73
  37        1          3          38  69  79
  38        1          2          64  84
  39        1          3          40  48  52
  40        1          3          64  75  78
  41        1          2          49  70
  42        1          2          44  61
  43        1          2          46  73
  44        1          1          46
  45        1          1          75
  46        1          2          62  65
  47        1          2          52  63
  48        1          3          75  80  82
  49        1          3          57  63  77
  50        1          3          51  54  77
  51        1          1          61
  52        1          3          57  64  76
  53        1          2          55  59
  54        1          3          55  67  85
  55        1          1          80
  56        1          3          57  59  77
  57        1          1          72
  58        1          3          66  68  74
  59        1          1          66
  60        1          1          82
  61        1          2          66  68
  62        1          1          63
  63        1          1          67
  64        1          1          72
  65        1          1          82
  66        1          2          69  71
  67        1          2          71  76
  68        1          2          79  91
  69        1          2          78  86
  70        1          1          72
  71        1          1          81
  72        1          1          83
  73        1          1          84
  74        1          2          76  86
  75        1          2          83  89
  76        1          2          78  81
  77        1          1          79
  78        1          1          91
  79        1          1          88
  80        1          1          84
  81        1          1          90
  82        1          1          90
  83        1          1          85
  84        1          2          88  89
  85        1          1          91
  86        1          1          87
  87        1          1          88
  88        1          1          90
  89        1          1          92
  90        1          1          92
  91        1          1          92
  92        1          0        
************************************************************************
REQUESTS/DURATIONS:
jobnr. mode duration  R 1  R 2  R 3  R 4
------------------------------------------------------------------------
  1      1     0       0    0    0    0
  2      1     7       2    7    9    5
  3      1    10       3    1    7    2
  4      1     7       0    0    6    8
  5      1    10       8    4   10    5
  6      1     3       0   10    2    9
  7      1     8       8   10   10    0
  8      1     2       0    5    2    2
  9      1     7       0    3    3    1
 10      1     9       0    6    3    9
 11      1     2       0   10    4    5
 12      1     4       6    1    1    0
 13      1     1       7    7    6    0
 14      1     6       0    4    5    6
 15      1     2       0    0    4    9
 16      1     7       0   10    3    3
 17      1     7      10    6    3    3
 18      1    10       3    0    4   10
 19      1     9       3    0    3    0
 20      1     3       5    2    4    4
 21      1     1       4    4    3    7
 22      1     7       2    7    5    4
 23      1     8       0    0    0    7
 24      1     5       9    8    0    0
 25      1     1       0    0    0   10
 26      1     3       0    1    7    5
 27      1     7       6    8    6    0
 28      1     7       8    9    3    7
 29      1     4      10    3    1    6
 30      1     8       0    1    3    9
 31      1     2       0    4    7    7
 32      1     3       0    8    0    2
 33      1     9       3    3    1    2
 34      1     8       7    1    0    9
 35      1     3       5    7    7    0
 36      1     6       3    0    2    3
 37      1     6       0    1    6    5
 38      1     7      10    5    0    8
 39      1     2       3    0    8    6
 40      1     3       5    8    7    7
 41      1     8       0    0   10   10
 42      1     4       5    8    6    0
 43      1     8       0    1    9    0
 44      1     5       3    3    8    3
 45      1     7       0    5   10    1
 46      1     6       0    1   10    1
 47      1     2       0    3   10    0
 48      1    10       8    5    1    0
 49      1     5       2    6    2    7
 50      1     8       8    2    3    3
 51      1     3       7    3    4    0
 52      1     7       2    7    0    2
 53      1     9       0    0    3    3
 54      1     9       1    9    8    4
 55      1     6       7    9    1    0
 56      1     1       1    5    7    0
 57      1     8       9    0    4    2
 58      1     6      10    6    3    1
 59      1     2       8    0    8    3
 60      1     6      10    8    6    3
 61      1     4       7    5    8    5
 62      1     9       0    0    8    7
 63      1     3       7    0    6    0
 64      1     5       0    0    1    5
 65      1    10       9    3    2    0
 66      1     9       0    2    5    0
 67      1     7       6   10    8    0
 68      1     8       1    8    8    0
 69      1     2       1    2    4    0
 70      1     3       6    0    0    3
 71      1     5       1    0    0    9
 72      1     8       2    2    1    0
 73      1     9       6    3    0    4
 74      1     3       0    6    7    3
 75      1     5       3   10    5   10
 76      1     4       0    0    9    1
 77      1     9      10    7    4    3
 78      1     4       1    4    2    9
 79      1     2       5   10   10    7
 80      1     3       3    1    0    6
 81      1     2       0    0    0   10
 82      1     2       9    6    6    1
 83      1    10      10    6    4    3
 84      1    10       3    0    4    5
 85      1     5       8    0    7    1
 86      1     6       7    0    5    6
 87      1     5       2    4    9    5
 88      1     3       0    7    3    0
 89      1     3       7    0    4   10
 90      1     2       8    0   10    3
 91      1    10       4    0    3    0
 92      1     0       0    0    0    0
************************************************************************
RESOURCEAVAILABILITIES:
  R 1  R 2  R 3  R 4
   60   48   51   43
************************************************************************
